(set-logic QF_FPBV)
(set-info :source |Random FP created by PyMPF|)
(set-info :category random)
(set-info :status unsat)
;; fp.from.sbv(BitVec 128)
(declare-const x (_ BitVec 128))
(assert (bvsle x #b00000101000100110001000100110110000010111001000010100100001110000000101010111110111001101001110011100101011100001001011110001011))
;; x should be 6745142702099974866087022740475254667
(declare-const r Float16)
(assert (= r ((_ to_fp 5 11) RTP x)))
(assert (not (fp.leq r (_ +oo 5 11))))
(check-sat)
(exit)
